(declare-const X String)
; ^[a-zA-Z]+(([\'\,\.\- ][a-zA-Z ])?[a-zA-Z]*)*$
(assert (not (str.in.re X (re.++ (re.+ (re.union (re.range "a" "z") (re.range "A" "Z"))) (re.* (re.++ (re.opt (re.++ (re.union (str.to.re "'") (str.to.re ",") (str.to.re ".") (str.to.re "-") (str.to.re " ")) (re.union (re.range "a" "z") (re.range "A" "Z") (str.to.re " ")))) (re.* (re.union (re.range "a" "z") (re.range "A" "Z"))))) (str.to.re "\x0a")))))
; \d{4}\s\d{4}\s\d{4}\s\d{4}$
(assert (not (str.in.re X (re.++ ((_ re.loop 4 4) (re.range "0" "9")) (re.union (str.to.re " ") (str.to.re "\x09") (str.to.re "\x0a") (str.to.re "\x0c") (str.to.re "\x0d")) ((_ re.loop 4 4) (re.range "0" "9")) (re.union (str.to.re " ") (str.to.re "\x09") (str.to.re "\x0a") (str.to.re "\x0c") (str.to.re "\x0d")) ((_ re.loop 4 4) (re.range "0" "9")) (re.union (str.to.re " ") (str.to.re "\x09") (str.to.re "\x0a") (str.to.re "\x0c") (str.to.re "\x0d")) ((_ re.loop 4 4) (re.range "0" "9")) (str.to.re "\x0a")))))
; \x2Fezsb\s+hirmvtg\x2fggqh\.kqh\dRemotetoolsbar\x2Ekuaiso\x2Ecom
(assert (not (str.in.re X (re.++ (str.to.re "/ezsb") (re.+ (re.union (str.to.re " ") (str.to.re "\x09") (str.to.re "\x0a") (str.to.re "\x0c") (str.to.re "\x0d"))) (str.to.re "hirmvtg/ggqh.kqh\x1b") (re.range "0" "9") (str.to.re "Remotetoolsbar.kuaiso.com\x0a")))))
; ^(([0-2]\d|[3][0-1])\/([0]\d|[1][0-2])\/[2][0]\d{2})$|^(([0-2]\d|[3][0-1])\/([0]\d|[1][0-2])\/[2][0]\d{2}\s([0-1]\d|[2][0-3])\:[0-5]\d\:[0-5]\d)$
(assert (not (str.in.re X (re.union (re.++ (re.union (re.++ (re.range "0" "2") (re.range "0" "9")) (re.++ (str.to.re "3") (re.range "0" "1"))) (str.to.re "/") (re.union (re.++ (str.to.re "0") (re.range "0" "9")) (re.++ (str.to.re "1") (re.range "0" "2"))) (str.to.re "/20") ((_ re.loop 2 2) (re.range "0" "9"))) (re.++ (str.to.re "\x0a") (re.union (re.++ (re.range "0" "2") (re.range "0" "9")) (re.++ (str.to.re "3") (re.range "0" "1"))) (str.to.re "/") (re.union (re.++ (str.to.re "0") (re.range "0" "9")) (re.++ (str.to.re "1") (re.range "0" "2"))) (str.to.re "/20") ((_ re.loop 2 2) (re.range "0" "9")) (re.union (str.to.re " ") (str.to.re "\x09") (str.to.re "\x0a") (str.to.re "\x0c") (str.to.re "\x0d")) (re.union (re.++ (re.range "0" "1") (re.range "0" "9")) (re.++ (str.to.re "2") (re.range "0" "3"))) (str.to.re ":") (re.range "0" "5") (re.range "0" "9") (str.to.re ":") (re.range "0" "5") (re.range "0" "9"))))))
; ProjectMyWebSearchSearchAssistantfast-look\x2EcomOneReporter
(assert (str.in.re X (str.to.re "ProjectMyWebSearchSearchAssistantfast-look.comOneReporter\x0a")))
(check-sat)
